RT is False
Default write of storage_offers_DA.csv just to have a file (but constraint should be inactive)
Reading model...
...model read.
creating competitive generators file...
...competitive generators recorded.
Loading data...
.. day-ahead data read.
Compiling instance...
...instance created.
Creating Offer Mitigation (model will solve as dispatch if TRUE)...
NOTE: storage offers will not be mitigated
...storage offer mitigation file created
Converting model to MPEC...
...converted
NOTE: initial MIP solve with only storage competitive to get feasible solution
Solving...

Welcome to IBM(R) ILOG(R) CPLEX(R) Interactive Optimizer 12.9.0.0
  with Simplex, Mixed Integer & Barrier Optimizers
5725-A06 5725-A29 5724-Y48 5724-Y49 5724-Y54 5724-Y55 5655-Y21
Copyright IBM Corp. 1988, 2019.  All Rights Reserved.

Type 'help' for a list of available commands.
Type 'help' followed by a command name for more
information on commands.

CPLEX> Logfile 'cplex.log' closed.
Logfile 'C:\Users\llavin\Desktop\test919\logs\tmplkmjla6z.cplex.log' open.
CPLEX> New value for parallel optimization mode: -1
CPLEX> New value for mixed integer optimality gap tolerance: 0.01
CPLEX> New value for integrality tolerance: 1e-09
CPLEX> New value for feasibility tolerance: 0.01
CPLEX> New value for deterministic time limit in ticks: 75000
CPLEX> Problem 'C:\Users\llavin\Desktop\test919\logs\tmp8jjb_33l.pyomo.lp' read.
Read time = 0.25 sec. (14.73 ticks)
CPLEX> Problem name         : C:\Users\llavin\Desktop\test919\logs\tmp8jjb_33l.pyomo.lp
Objective sense      : Maximize
Variables            :   53805  [Nneg: 1,  Box: 22000,  Free: 4464,
                                 Binary: 27340]
Objective nonzeros   :    9064
Linear constraints   :  123205  [Less: 41346,  Greater: 59096,  Equal: 22763]
  Nonzeros           :  291788
  RHS nonzeros       :   67526

Variables            : Min LB: -5000.000        Max UB: 1000000.       
Objective nonzeros   : Min   : 0.4000000        Max   : 2500.000       
Linear constraints   :
  Nonzeros           : Min   : 0.4000000        Max   : 1000000.       
  RHS nonzeros       : Min   : 0.4000000        Max   : 1000000.       
CPLEX> CPXPARAM_Parallel                                -1
CPXPARAM_Simplex_Tolerances_Feasibility          0.01
CPXPARAM_DetTimeLimit                            75000
CPXPARAM_MIP_Tolerances_MIPGap                   0.01
CPXPARAM_MIP_Tolerances_Integrality              1.0000000000000001e-09
Tried aggregator 3 times.
MIP Presolve eliminated 88443 rows and 18793 columns.
MIP Presolve added 3416 rows and 0 columns.
MIP Presolve modified 24952 coefficients.
Aggregator did 13002 substitutions.
Reduced MIP has 25176 rows, 21480 columns, and 71750 nonzeros.
Reduced MIP has 8497 binaries, 0 generals, 0 SOSs, and 0 indicators.
Presolve time = 0.30 sec. (173.83 ticks)
Probing fixed 378 vars, tightened 2840 bounds.
Probing time = 1.17 sec. (875.39 ticks)
Tried aggregator 2 times.
MIP Presolve eliminated 861 rows and 765 columns.
MIP Presolve modified 2248 coefficients.
Aggregator did 38 substitutions.
Reduced MIP has 24277 rows, 20677 columns, and 69144 nonzeros.
Reduced MIP has 8115 binaries, 0 generals, 0 SOSs, and 0 indicators.
Presolve time = 0.11 sec. (72.69 ticks)
Probing time = 0.03 sec. (15.88 ticks)
Clique table members: 6330.
MIP emphasis: balance optimality and feasibility.
MIP search method: dynamic search.
Parallel mode: opportunistic, using up to 32 threads.
Root relaxation solution time = 0.36 sec. (266.58 ticks)

        Nodes                                         Cuts/
   Node  Left     Objective  IInf  Best Integer    Best Bound    ItCnt     Gap

      0     0     3940.9761  1708                   3940.9761     6496         
      0     0     3940.9761    33                    Cuts: 19     6507         
      0     0     3940.9761    31                     Cuts: 6     6510         
      0     0     3940.9761    31                 Impl Bds: 1     6510         
      0     4    infeasible                           Cuts: 2     6858         
Elapsed time = 8.63 sec. (5432.72 ticks, tree = 0.02 MB, solutions = 0)
    580   103   -80285.3121    10                   3891.7773    10903         
*  1032    71      integral     0     2054.0095     3891.7773     9444   89.47%
*  1141   113      integral     0     2531.6767     3891.7773    12821   53.72%
*  1147   111      integral     0     3500.9819     3891.7773    10537   11.16%
*  1190   112      integral     0     3527.0263     3844.7559    12313    9.01%
*  1201   114      integral     0     3844.7559     3844.7559    12706    0.00%

Implied bound cuts applied:  5
Flow cuts applied:  5
Gomory fractional cuts applied:  11

Root node processing (before b&c):
  Real time             =    7.61 sec. (5428.20 ticks)
Parallel b&c, 32 threads:
  Real time             =    4.38 sec. (720.20 ticks)
  Sync time (average)   =    1.50 sec.
  Wait time (average)   =    0.00 sec.
                          ------------
Total (root+branch&cut) =   11.98 sec. (6148.39 ticks)

Solution pool: 7 solutions saved.

MIP - Integer optimal solution:  Objective =  3.8447558889e+03
Solution time =   12.00 sec.  Iterations = 27456  Nodes = 1202
Deterministic time = 6148.55 ticks  (512.38 ticks/sec)

CPLEX> Incumbent solution written to file 'C:\Users\llavin\Desktop\test919\logs\tmpp7rypra3.cplex.sol'.
CPLEX> NOTE: no warmstart specified for MIP iteration, default behavior is true
NOTE: resolving with all competitive generators using storage-only solution to warmstart
Solving...

Welcome to IBM(R) ILOG(R) CPLEX(R) Interactive Optimizer 12.9.0.0
  with Simplex, Mixed Integer & Barrier Optimizers
5725-A06 5725-A29 5724-Y48 5724-Y49 5724-Y54 5724-Y55 5655-Y21
Copyright IBM Corp. 1988, 2019.  All Rights Reserved.

Type 'help' for a list of available commands.
Type 'help' followed by a command name for more
information on commands.

CPLEX> Logfile 'cplex.log' closed.
Logfile 'C:\Users\llavin\Desktop\test919\logs\tmpzne2lh64.cplex.log' open.
CPLEX> New value for parallel optimization mode: -1
CPLEX> New value for mixed integer optimality gap tolerance: 0.01
CPLEX> New value for integrality tolerance: 1e-09
CPLEX> New value for feasibility tolerance: 0.01
CPLEX> New value for deterministic time limit in ticks: 75000
CPLEX> Problem 'C:\Users\llavin\Desktop\test919\logs\tmpv02o68st.pyomo.lp' read.
Read time = 0.25 sec. (14.75 ticks)
CPLEX> MIP start file 'C:\Users\llavin\Desktop\test919\logs\tmplhqr5g6p.cplex.mst' read.
CPLEX> Problem name         : C:\Users\llavin\Desktop\test919\logs\tmpv02o68st.pyomo.lp
Objective sense      : Maximize
Variables            :   54525  [Nneg: 1,  Box: 22720,  Free: 4464,
                                 Binary: 27340]
Objective nonzeros   :    9760
Linear constraints   :  123205  [Less: 41346,  Greater: 59096,  Equal: 22763]
  Nonzeros           :  291788
  RHS nonzeros       :   67526

Variables            : Min LB: -5000.000        Max UB: 1000000.       
Objective nonzeros   : Min   : 0.4000000        Max   : 2500.000       
Linear constraints   :
  Nonzeros           : Min   : 0.4000000        Max   : 1000000.       
  RHS nonzeros       : Min   : 0.4000000        Max   : 1000000.       
CPLEX> CPXPARAM_Parallel                                -1
CPXPARAM_Simplex_Tolerances_Feasibility          0.01
CPXPARAM_DetTimeLimit                            75000
CPXPARAM_MIP_Tolerances_MIPGap                   0.01
CPXPARAM_MIP_Tolerances_Integrality              1.0000000000000001e-09
Warning:  No solution found from 1 MIP starts.
Retaining values of one MIP start for possible repair.
Tried aggregator 3 times.
MIP Presolve eliminated 88443 rows and 19513 columns.
MIP Presolve added 3416 rows and 0 columns.
MIP Presolve modified 24952 coefficients.
Aggregator did 13002 substitutions.
Reduced MIP has 25176 rows, 21480 columns, and 71750 nonzeros.
Reduced MIP has 8497 binaries, 0 generals, 0 SOSs, and 0 indicators.
Presolve time = 0.30 sec. (174.19 ticks)
Probing fixed 378 vars, tightened 2840 bounds.
Probing time = 1.19 sec. (875.39 ticks)
Tried aggregator 2 times.
MIP Presolve eliminated 861 rows and 765 columns.
MIP Presolve modified 2248 coefficients.
Aggregator did 38 substitutions.
Reduced MIP has 24277 rows, 20677 columns, and 69144 nonzeros.
Reduced MIP has 8115 binaries, 0 generals, 0 SOSs, and 0 indicators.
Presolve time = 0.11 sec. (72.70 ticks)
Probing time = 0.03 sec. (15.88 ticks)
Clique table members: 6330.
MIP emphasis: balance optimality and feasibility.
MIP search method: dynamic search.
Parallel mode: opportunistic, using up to 32 threads.
Root relaxation solution time = 0.50 sec. (345.28 ticks)

        Nodes                                         Cuts/
   Node  Left     Objective  IInf  Best Integer    Best Bound    ItCnt     Gap

      0     0    71039.0144  1819                  71039.0144     7292         
      0     0    70277.6059   663                   Cuts: 587     7587         
      0     0    69797.5533   583                   Cuts: 281     7704         
      0     0    69765.8617   524                   Cuts: 172     7814         
      0     0    69765.5539   495                   Cuts: 101     7869         
      0     0    69765.5539   469                    Cuts: 64     7904         
      0     0    69765.5539   464                    Cuts: 36     7921         
      0     0    69765.5539   455                    Cuts: 39     7933         
      0     0    69765.5539   438                    Cuts: 23     7943         
      0     0    69765.5539   437                    Cuts: 16     7945         
Repair heuristic found nothing.
      0     8    infeasible                           Cuts: 8     8098         
Elapsed time = 11.30 sec. (6701.37 ticks, tree = 0.02 MB, solutions = 0)
    407   177    61767.7838   403                  69281.1542     9399         
    849   395    infeasible                        69281.1542    11430         
   1484   921    58240.4316   363                  69281.1542    17157         
   2392  1305    38924.0895   341                  69281.1542    21958         
   3332  2194    66858.3657   360                  69281.1542    26434         
   4258  2923    45211.0216   341                  69281.1542    27838         
   5259  3212    53880.1489   343                  69281.1542    28252         
   6264  4776    66474.1699   349                  69281.1542    28794         
   7394  5276    55666.8894   337                  69281.1542    29005         
* 10156+ 5886                        53159.8018    69281.1542            30.33%
Elapsed time = 26.98 sec. (9412.59 ticks, tree = 45.55 MB, solutions = 2)
  11871  7111        cutoff          53159.8018    69215.2894    42293   30.20%
  12603   433    56894.5789    26    53159.8018    68892.1652    46666   29.59%
  14794   894    66210.8925    38    60495.2160    68892.1652    49887   13.88%
  17532  2591    62761.8272    14    66438.3477    68892.1652    67123    3.69%
  19058  1118    68175.1801    45    66438.3477    68891.2421    75443    3.69%
  19167  1273    67519.4236    40    66438.3477    68891.2421    94784    3.69%
  20446  1278    67014.1844    38    67364.7617    68135.2417    94885    1.14%
  22364   930    67631.4708    34    67364.7617    68135.2417   111041    1.14%
  23617  1103    67715.6121    33    67364.7617    68135.2417   114364    1.14%
  24331  1792        cutoff          67364.7617    68135.2417   122816    1.14%
Elapsed time = 72.38 sec. (23584.83 ticks, tree = 130.67 MB, solutions = 12)
  24850  1794    67707.2015    37    67364.7617    68135.2417   122298    1.14%
  25087  2649    67715.6121    13    67364.7617    68135.2417   135521    1.14%
  25297  2812    67715.6121    15    67364.7617    68135.2417   137808    1.14%
  25459  2420    67707.2015    18    67364.7617    68135.2417   131434    1.14%
  25592  2970    67715.6121    15    67364.7617    68135.2417   140455    1.14%
  25703  3073    67707.2015    14    67364.7617    68135.2417   141980    1.14%
  25817  3040        cutoff          67364.7617    68135.2417   141544    1.14%
  25943  3098    67701.1523    18    67364.7617    68135.2417   142189    1.14%
  26051  3200        cutoff          67364.7617    68135.2417   142927    1.14%
  26166  3076    67707.2015    16    67364.7617    68135.2417   142000    1.14%
Elapsed time = 78.77 sec. (33198.54 ticks, tree = 145.37 MB, solutions = 12)
  26262  3182    67707.2015    17    67364.7617    68135.2417   142678    1.14%
  26365  3215    67715.6121    15    67364.7617    68135.2417   142987    1.14%
  26506  3137        cutoff          67364.7617    68135.2417   142364    1.14%
  26647  3225    67715.6121    13    67364.7617    68135.2417   143065    1.14%
  26831  3558    67715.6121    13    67364.7617    68135.2417   145719    1.14%
  26997  3404        cutoff          67364.7617    68135.2417   144852    1.14%
  27148  3454    67715.6121    15    67364.7617    68135.2417   145045    1.14%
  27295  3359    67522.3642    16    67364.7617    68135.2417   144090    1.14%
  27448  3466    67715.4012    15    67364.7617    68135.2417   145091    1.14%
  27663  3873        cutoff          67364.7617    68135.2417   148963    1.14%
Elapsed time = 88.92 sec. (42786.71 ticks, tree = 155.92 MB, solutions = 12)
  27786  3889    67715.6121    13    67364.7617    68135.2417   149605    1.14%
  27918  4057    67941.9937    17    67364.7617    68135.2417   151983    1.14%
  28043  3852    67715.6121    15    67364.7617    68135.2417   148271    1.14%
  28158  3827        cutoff          67364.7617    68135.2417   147967    1.14%
  28291  4100    67715.6121    14    67364.7617    68135.2417   152510    1.14%
  28433  4182        cutoff          67364.7617    68135.2417   153763    1.14%
  28564  3960        cutoff          67364.7617    68135.2417   150483    1.14%
  28717  4201        cutoff          67364.7617    68135.2417   154038    1.14%
  28879  4117        cutoff          67364.7617    68135.2417   153084    1.14%
  29025  4102    68126.8310    16    67364.7617    68135.2417   152964    1.14%
Elapsed time = 96.45 sec. (52459.69 ticks, tree = 159.02 MB, solutions = 12)
  29234  4512    67710.3850    14    67364.7617    68135.2417   158770    1.14%
  29364  4334    67426.2022    21    67364.7617    68135.2417   155876    1.14%
  29558  4240    67701.9743    18    67364.7617    68135.2417   154304    1.14%
  29685  4241        cutoff          67364.7617    68135.2417   154325    1.14%
  29840  4450    67710.3850    23    67364.7617    68135.2417   157943    1.14%
  29946  4618    67707.2015    15    67364.7617    68135.2417   160907    1.14%
  30081  4650    67715.6121    29    67364.7617    68135.2417   161530    1.14%
  30239  4650    67715.6121    16    67364.7617    68135.2417   161180    1.14%
* 30341  4740      integral     0    67715.5864    68135.2417   163028    0.62%
  30372  4628        cutoff          67715.5864    68135.2417   161021    0.62%
  30497  4673        cutoff          67715.5864    68135.2417   161903    0.62%
Elapsed time = 106.42 sec. (62066.94 ticks, tree = 166.94 MB, solutions = 13)
  30586  4708    67568.4525    20    67715.5864    68135.2417   162601    0.62%
  30698  4680    67715.6121    33    67715.5864    68135.2417   161963    0.62%
  30837  4731        cutoff          67715.5864    68135.2417   162949    0.62%
  30918  4668    67695.9252    18    67715.5864    68135.2417   161833    0.62%
  30989  4677        cutoff          67715.5864    68135.2417   162320    0.62%
  31044  4748        cutoff          67715.5864    68135.2417   163069    0.62%
  31107  4760    67426.2022    19    67715.5864    68135.2417   163265    0.62%
  31124  4749        cutoff          67715.5864    68135.2417   163081    0.62%

Clique cuts applied:  17
Cover cuts applied:  11
Implied bound cuts applied:  35
Flow cuts applied:  826
Mixed integer rounding cuts applied:  104
Gomory fractional cuts applied:  91

Root node processing (before b&c):
  Real time             =    9.63 sec. (6685.80 ticks)
Parallel b&c, 32 threads:
  Real time             =   97.23 sec. (64085.61 ticks)
  Sync time (average)   =    6.20 sec.
  Wait time (average)   =    0.26 sec.
                          ------------
Total (root+branch&cut) =  106.86 sec. (70771.41 ticks)

Solution pool: 13 solutions saved.

MIP - Integer optimal, tolerance (0.01/1e-06):  Objective =  6.7715586370e+04
Current MIP best bound =  6.8135241684e+04 (gap = 419.655, 0.62%)
Solution time =  106.89 sec.  Iterations = 170031  Nodes = 31127 (3039)
Deterministic time = 70771.57 ticks  (662.10 ticks/sec)

CPLEX> Incumbent solution written to file 'C:\Users\llavin\Desktop\test919\logs\tmpj76fr3w5.cplex.sol'.
CPLEX> Exporting results... 
